# abstract10.dat AMPL data format

set I := C1 C2;
set J := I1 I2 I3 I4 I5 I6 I7 I8 I9 I10 I11 I12 I13 I14;

param a :=
C1 I1 1
C1 I2 2
C1 I3 3
C1 I4 1
C1 I5 3
C1 I6 0
C1 I7 1
C1 I8 2
C1 I9 3
C1 I10 1
C1 I11 3
C1 I12 0
C1 I13 0
C1 I14 0
C2 I1 0
C2 I2 1
C2 I3 2
C2 I4 1
C2 I5 0
C2 I6 1
C2 I7 0
C2 I8 1
C2 I9 2
C2 I10 1
C2 I11 0
C2 I12 1
C2 I13 1
C2 I14 1
;

param custo := [*]
I1 2
I2 3
I3 1
I4 4
I5 1
I6 1
I7 2
I8 3
I9 1
I10 4
I11 1
I12 1
I13 1
I14 1
;

param b := 
C1 15
C2 8;